p cnf 47 151
1 -2 0
2 -1 0
3 -4 0
4 -3 0
5 -6 0
6 -5 0
7 -8 0
8 -7 0
9 -10 0
10 -9 0
11 -12 0
12 -11 0
13 -14 0
14 -13 0
15 -16 0
16 -15 0
17 -18 0
18 -17 0
19 -20 0
20 -19 0
21 -22 0
22 -21 0
23 -24 0
24 -23 0
13 25 0
5 25 0
-13 -5 -25 0
1 26 0
9 26 0
-1 -9 -26 0
3 27 0
-26 27 0
-3 26 -27 0
11 28 0
28 -26 0
26 -11 -28 0
3 29 0
11 29 0
-3 -11 -29 0
13 30 0
-29 30 -27 -28 0
-13 29 -30 0
-13 28 -30 0
-13 -30 27 0
5 31 0
31 -29 -27 -28 0
-5 -31 29 0
28 -5 -31 0
-5 -31 27 0
31 -7 0
-7 30 0
25 -7 0
-32 11 3 0
-26 -32 3 0
-26 -32 11 0
32 -3 -11 0
-3 26 32 0
26 -11 32 0
13 5 -33 0
13 32 -33 0
32 5 -33 0
-13 -5 33 0
33 -13 -32 0
33 -5 -32 0
7 15 33 -34 0
7 -15 -33 -34 0
-7 15 -33 -34 0
-15 -7 33 -34 0
34 -7 -15 -33 0
-7 15 33 34 0
7 -15 33 34 0
7 15 -33 34 0
-23 -34 0
-5 0
-13 0
-23 0
1 -9 -35 0
9 -1 -35 0
35 -1 -9 0
1 9 35 0
-17 35 -36 0
17 -35 -36 0
-17 -35 36 0
17 35 36 0
-36 0
17 37 0
19 37 0
-17 -19 -37 0
-21 37 0
31 -15 0
-15 30 0
25 -15 0
-15 -7 0
17 38 0
-35 38 0
-17 35 -38 0
26 11 3 -39 0
-26 -11 3 -39 0
-3 -26 11 -39 0
-3 26 -11 -39 0
39 -3 -11 -26 0
-3 26 11 39 0
26 -11 3 39 0
-26 11 3 39 0
-39 40 0
-38 40 0
38 39 -40 0
19 41 0
-38 41 0
-19 38 -41 0
19 42 0
-39 42 0
-19 39 -42 0
13 32 5 -43 0
-13 -32 5 -43 0
-5 13 -32 -43 0
-13 -5 32 -43 0
43 -5 -13 -32 0
-5 13 32 43 0
-13 32 5 43 0
13 -32 5 43 0
43 44 0
-40 -41 -42 44 0
42 -43 -44 0
41 -43 -44 0
40 -43 -44 0
21 45 0
-40 -41 -42 45 0
-21 42 -45 0
-21 41 -45 0
-21 40 -45 0
21 46 0
43 46 0
-21 -43 -46 0
-23 46 0
-23 45 0
-23 44 0
-34 46 0
-34 45 0
-34 44 0
-7 0
-15 0
34 -23 0
23 -34 0
-19 39 -47 0
19 -39 -47 0
-19 -39 47 0
19 39 47 0
-47 0
43 -21 0
21 -43 0
